36 12
4 902
6 60
8 207
2 860
11 577
10 346
1 108
11 744
8 340
5 142
7 476
11 796
9 842
3 926
6 344
11 637
2 574
10 544
7 704
5 91
9 441
2 706
2 374
1 856
11 525
10 71
3 45
5 475
9 351
11 172
2 775
4 807
8 109
1 337
7 367
3 809
